
Gurobi 11.0.1 (win64, gurobi_cl) logging started Thu May  2 15:57:49 2024

Set parameter Username
Set parameter LogFile to value "gurobi.log"
Using license file C:\Users\csms\gurobi.lic
Academic license - for non-commercial use only - expires 2025-05-02
